100
32
26
18
32
3
21
24
19
3
8
11
31
30
17
21
17
4
30
25
13
3
1
7
16
12
27
25
29
31
18
25
17
26
18
4
25
30
32
12
24
13
19
6
23
29
20
30
21
1
6
9
11
17
14
24
23
21
11
2
16
15
15
27
8
6
30
2
29
28
28
9
2
7
4
13
15
31
21
1
16
12
17
18
19
14
15
5
20
10
12
19
18
32
24
25
29
18
14
29
16
14